0 8112846
2 8107561
5 8093484
7 7797744
8 7707130
10 7688199
11 7666882
12 7645393
13 7548790
17 7526752
18 7524802
19 7440439
21 7432028
22 7431909
23 7430299
28 7424088
30 7419357
34 7419281
37 7419216
38 7377525
46 7361479
48 7360296
49 7356578
51 7327147
56 7287192
61 7285675
65 7276642
66 7231662
67 7231277
74 7231256
82 7228923
85 7220330
101 7204977
102 7201869
108 7201862
114 7200156
129 7199964
130 7199943
139 7199754
140 7194490
171 7193091
184 7187206
189 7187178
204 7181483
216 7181133
254 7167902
260 7158074
265 7151418
276 7151296
289 7150568
302 7145824
307 7135756
327 7133832
340 7131736
358 7131729
367 7118136
375 7117477
407 7102150
494 7101722
503 7101692
614 7100704
659 7100050
983 7099924
